(declare-sort Loc 0)
(declare-const f496_0_createList_Load Loc)
(declare-const f928_0_createList_Load Loc)
(declare-const f1_0_main_Load Loc)
(declare-const f2403_0_random_ArrayAccess Loc)
(declare-const f521_0_createList_Return Loc)
(declare-const f2986_0_entry_LE Loc)
(declare-const f2990_0_addBefore_FieldAccess Loc)
(declare-const f3201_0_entry_GT Loc)
(declare-const f3360_0_addBefore_FieldAccess Loc)
(declare-const f2377_0_createList_LE Loc)
(declare-const __init Loc)
(assert (distinct f496_0_createList_Load f928_0_createList_Load f1_0_main_Load f2403_0_random_ArrayAccess f521_0_createList_Return f2986_0_entry_LE f2990_0_addBefore_FieldAccess f3201_0_entry_GT f3360_0_addBefore_FieldAccess f2377_0_createList_LE __init ))

(define-fun cfg_init ( (pc Loc) (src Loc) (rel Bool) ) Bool
  (and (= pc src) rel))

(define-fun cfg_trans2 ( (pc Loc) (src Loc)
                         (pc1 Loc) (dst Loc)
                         (rel Bool) ) Bool
  (and (= pc src) (= pc1 dst) rel))

(define-fun cfg_trans3 ( (pc Loc) (exit Loc)
                         (pc1 Loc) (call Loc)
                         (pc2 Loc) (return Loc)
                         (rel Bool) ) Bool
  (and (= pc exit) (= pc1 call) (= pc2 return) rel))

(define-fun init_main ( (pc Loc) (arg1 Int) (arg2 Int) (arg3 Int) (arg4 Int) (arg5 Int) (arg6 Int) (arg7 Int) (arg8 Int) (arg9 Int) (arg10 Int) (arg11 Int) (arg12 Int) (arg13 Int) (arg14 Int) (arg15 Int) (arg16 Int) (arg17 Int) (arg18 Int) (arg19 Int) (arg20 Int) (arg21 Int) (arg22 Int) (arg23 Int) ) Bool
  (cfg_init pc __init true))

(define-fun next_main (
                 (pc Loc) (arg1 Int) (arg2 Int) (arg3 Int) (arg4 Int) (arg5 Int) (arg6 Int) (arg7 Int) (arg8 Int) (arg9 Int) (arg10 Int) (arg11 Int) (arg12 Int) (arg13 Int) (arg14 Int) (arg15 Int) (arg16 Int) (arg17 Int) (arg18 Int) (arg19 Int) (arg20 Int) (arg21 Int) (arg22 Int) (arg23 Int)
                 (pc1 Loc) (arg1P Int) (arg2P Int) (arg3P Int) (arg4P Int) (arg5P Int) (arg6P Int) (arg7P Int) (arg8P Int) (arg9P Int) (arg10P Int) (arg11P Int) (arg12P Int) (arg13P Int) (arg14P Int) (arg15P Int) (arg16P Int) (arg17P Int) (arg18P Int) (arg19P Int) (arg20P Int) (arg21P Int) (arg22P Int) (arg23P Int)
             ) Bool
  (or
    (cfg_trans2 pc f496_0_createList_Load pc1 f928_0_createList_Load (and (and (and (and (and (and (and (and (and (and (and (and (and (and (and (and (and (and (<= arg2P arg2) (> arg2 9)) (> arg2P 9)) (<= (+ arg6 5) arg2)) (<= (+ arg7 3) arg2)) (= arg1 arg1P)) (= 0 arg3P)) (= 0 arg4P)) (= arg4 arg5P)) (= arg6P arg7P)) (= 0 arg8P)) (= 0 arg9P)) (= 0 arg10P)) (= arg3 arg15P)) (= arg3 arg16P)) (= arg4 arg17P)) (= arg5 arg19P)) (= arg6 arg20P)) (= arg7 arg21P)))
    (cfg_trans2 pc f1_0_main_Load pc1 f2403_0_random_ArrayAccess (exists ((x24 Int)) (and (and (and (and (> x24 (- 1)) (> arg2 0)) (> arg1 0)) (> arg1P 5)) (= arg2 arg4P))))
    (cfg_trans2 pc f521_0_createList_Return pc1 f2403_0_random_ArrayAccess (and (and (and (and (and (and (and (and (and (and (> arg1 0) (> arg2 5)) (> arg1P 5)) (<= (+ arg6 5) arg2)) (<= (+ arg7 7) arg2)) (<= (+ arg9 3) arg2)) (<= (+ arg8 7) arg2)) (= arg3 arg2P)) (= arg4 arg3P)) (= arg6 arg5P)) (= arg9 arg8P)))
    (cfg_trans2 pc f2403_0_random_ArrayAccess pc1 f2986_0_entry_LE (exists ((x39 Int) (x49 Int) (x50 Int)) (and (and (and (and (and (and (and (and (and (and (and (and (and (and (and (and (and (< arg3P arg5) (< (+ x39 1) arg4)) (> x39 (- 1))) (> arg3P (- 1))) (> x49 (- 1))) (<= x50 arg3P)) (> arg1 5)) (> arg1P 0)) (<= (+ arg5 5) arg1)) (<= (+ arg6 7) arg1)) (<= (+ arg8 3) arg1)) (<= (+ arg7 7) arg1)) (= arg5 arg2P)) (= arg3 arg4P)) (= arg2 arg5P)) (= arg3 arg6P)) (= arg3 arg7P)) (= arg3 arg8P))))
    (cfg_trans2 pc f2403_0_random_ArrayAccess pc1 f2990_0_addBefore_FieldAccess (exists ((x65 Int) (x52 Int) (x66 Int) (x67 Int)) (and (and (and (and (and (and (and (and (and (and (and (and (and (and (and (and (and (and (and (and (> x65 0) (< (+ x52 1) arg4)) (> x52 (- 1))) (> arg5 (- 1))) (> arg2 (- 1))) (< x66 arg2)) (< x65 arg3)) (> arg3 (- 1))) (> x67 (- 1))) (> x65 arg5P)) (> x66 0)) (<= (+ arg1P 5) arg1)) (> arg1 5)) (> arg1P 0)) (> arg2P 5)) (> arg3P 0)) (> arg4P 4)) (<= (+ arg5 5) arg1)) (<= (+ arg6 7) arg1)) (<= (+ arg8 3) arg1)) (<= (+ arg7 7) arg1))))
    (cfg_trans2 pc f2986_0_entry_LE pc1 f2986_0_entry_LE (exists ((x80 Int)) (and (and (and (and (and (and (and (and (and (and (and (and (and (and (and (and (and (and (> arg6 0) (> arg4 0)) (> arg8 0)) (> arg4P arg4)) (> arg7 arg4)) (> arg5 0)) (< x80 arg8P)) (< arg6P arg6)) (> arg7 0)) (> x80 (- 1))) (< x80 arg8)) (< x80 arg6P)) (< arg3 arg2)) (> arg1 2)) (> arg1P 0)) (= (- arg2 1) arg2P)) (= arg3 arg3P)) (= arg5 arg5P)) (= arg7 arg7P))))
    (cfg_trans2 pc f2986_0_entry_LE pc1 f2986_0_entry_LE (exists ((x90 Int)) (and (and (and (and (and (and (and (and (and (and (and (and (and (and (and (< x90 arg5) (> arg5 (- 1))) (< arg6P arg7)) (> arg7 (- 1))) (< arg3 arg2)) (> arg6P 0)) (> x90 0)) (> arg1 0)) (> arg1P 0)) (= arg7 arg8)) (= (- arg2 1) arg2P)) (= arg3 arg3P)) (= 1 arg4P)) (= 0 arg5P)) (= 0 arg7P)) (= 0 arg8P))))
    (cfg_trans2 pc f2986_0_entry_LE pc1 f2986_0_entry_LE (exists ((x100 Int) (x101 Int)) (and (and (and (and (and (and (and (and (and (and (and (and (and (and (> arg5 x100) (> arg5 (- 1))) (> arg7 x101)) (> arg7 (- 1))) (> x100 0)) (< arg3 arg2)) (> arg1 0)) (> arg1P 2)) (= arg7 arg8)) (= (- arg2 1) arg2P)) (= arg3 arg3P)) (= 1 arg4P)) (= 1 arg6P)) (= 1 arg7P)) (= 1 arg8P))))
    (cfg_trans2 pc f2986_0_entry_LE pc1 f2986_0_entry_LE (exists ((x112 Int)) (and (and (and (and (and (and (and (and (and (and (and (and (and (< x112 arg5) (> arg5 (- 1))) (< arg6P arg7)) (> arg7 (- 1))) (> arg6P 0)) (< arg3 arg2)) (> arg1 0)) (> arg1P 0)) (= arg7 arg8)) (= (- arg2 1) arg2P)) (= arg3 arg3P)) (= 1 arg4P)) (= 1 arg5P)) (= 0 arg8P))))
    (cfg_trans2 pc f2986_0_entry_LE pc1 f2986_0_entry_LE (exists ((x121 Int) (x122 Int)) (and (and (and (and (and (and (and (and (and (and (and (and (and (and (and (< x121 arg5) (> arg5 (- 1))) (< x122 arg7)) (< arg3 arg2)) (> arg7 (- 1))) (<= (- arg1P 2) arg1)) (> arg1 0)) (> arg1P 2)) (= arg7 arg8)) (= (- arg2 1) arg2P)) (= arg3 arg3P)) (= 1 arg4P)) (= 1 arg5P)) (= 1 arg6P)) (= 1 arg7P)) (= 1 arg8P))))
    (cfg_trans2 pc f2403_0_random_ArrayAccess pc1 f3201_0_entry_GT (exists ((x124 Int) (x134 Int) (x135 Int)) (and (and (and (and (and (and (and (and (and (and (and (and (and (and (and (and (and (< arg3P arg5) (< (+ x124 1) arg4)) (> x124 (- 1))) (> arg3P (- 1))) (> x134 (- 1))) (> x135 arg3P)) (> arg1 5)) (> arg1P 0)) (<= (+ arg5 5) arg1)) (<= (+ arg6 7) arg1)) (<= (+ arg8 3) arg1)) (<= (+ arg7 7) arg1)) (= 0 arg2P)) (= arg2 arg4P)) (= arg3 arg5P)) (= arg2 arg6P)) (= arg2 arg7P)) (= arg2 arg8P))))
    (cfg_trans2 pc f3201_0_entry_GT pc1 f3201_0_entry_GT (exists ((x148 Int)) (and (and (and (and (and (and (and (and (and (and (and (and (and (and (and (and (and (and (> arg7 0) (> arg6 0)) (> arg8 0)) (> arg6P arg6)) (< arg6 arg4)) (> arg5 0)) (> arg4 0)) (< x148 arg7P)) (< x148 arg7)) (> x148 (- 1))) (< arg8P arg8)) (< x148 arg8P)) (>= arg3 arg2)) (> arg1 2)) (> arg1P 0)) (= (+ arg2 1) arg2P)) (= arg3 arg3P)) (= arg4 arg4P)) (= arg5 arg5P))))
    (cfg_trans2 pc f3201_0_entry_GT pc1 f3201_0_entry_GT (exists ((x158 Int)) (and (and (and (and (and (and (and (and (and (and (and (and (and (and (and (< arg8P arg4) (> arg4 (- 1))) (< x158 arg5)) (> arg5 (- 1))) (>= arg3 arg2)) (> x158 0)) (> arg8P 0)) (> arg1 0)) (> arg1P 0)) (= arg4 arg7)) (= (+ arg2 1) arg2P)) (= arg3 arg3P)) (= 0 arg4P)) (= 0 arg5P)) (= 1 arg6P)) (= 0 arg7P))))
    (cfg_trans2 pc f3201_0_entry_GT pc1 f3201_0_entry_GT (exists ((x169 Int)) (and (and (and (and (and (and (and (and (and (and (and (and (and (< arg8P arg4) (> arg4 (- 1))) (< x169 arg5)) (> arg5 (- 1))) (> arg8P 0)) (>= arg3 arg2)) (> arg1 0)) (> arg1P 0)) (= arg4 arg7)) (= (+ arg2 1) arg2P)) (= arg3 arg3P)) (= 1 arg5P)) (= 1 arg6P)) (= 0 arg7P))))
    (cfg_trans2 pc f3201_0_entry_GT pc1 f3201_0_entry_GT (exists ((x179 Int) (x180 Int)) (and (and (and (and (and (and (and (and (and (and (and (and (and (and (< x179 arg4) (> arg4 (- 1))) (< x180 arg5)) (> arg5 (- 1))) (> x180 0)) (>= arg3 arg2)) (> arg1 0)) (> arg1P 2)) (= arg4 arg7)) (= (+ arg2 1) arg2P)) (= arg3 arg3P)) (= 1 arg4P)) (= 1 arg6P)) (= 1 arg7P)) (= 1 arg8P))))
    (cfg_trans2 pc f3201_0_entry_GT pc1 f3201_0_entry_GT (exists ((x189 Int) (x190 Int)) (and (and (and (and (and (and (and (and (and (and (and (and (and (and (and (< x189 arg4) (> arg4 (- 1))) (< x190 arg5)) (>= arg3 arg2)) (> arg5 (- 1))) (<= (- arg1P 2) arg1)) (> arg1 0)) (> arg1P 2)) (= arg4 arg7)) (= (+ arg2 1) arg2P)) (= arg3 arg3P)) (= 1 arg4P)) (= 1 arg5P)) (= 1 arg6P)) (= 1 arg7P)) (= 1 arg8P))))
    (cfg_trans2 pc f2986_0_entry_LE pc1 f3360_0_addBefore_FieldAccess (exists ((x206 Int) (x207 Int) (x208 Int) (x209 Int) (x211 Int) (x210 Int) (x212 Int)) (and (and (and (and (and (and (and (and (and (and (and (and (and (and (and (and (and (and (and (and (and (> arg8 0) (> arg6 0)) (> arg5 0)) (> arg4 0)) (< x206 arg6)) (> arg7 0)) (> x207 (- 1))) (< x208 x207)) (< x209 arg8)) (< x211 x210)) (>= arg3 arg2)) (> x210 (- 1))) (> x212 arg5P)) (> x209 (- 1))) (> x212 (- 1))) (> x209 arg5P)) (<= (+ arg1P 2) arg1)) (> arg1 2)) (> arg1P 0)) (> arg2P 9)) (> arg3P 0)) (> arg4P 4))))
    (cfg_trans2 pc f2986_0_entry_LE pc1 f3360_0_addBefore_FieldAccess (exists ((x228 Int) (x229 Int) (x230 Int) (x231 Int) (x233 Int) (x232 Int) (x234 Int) (x235 Int)) (and (and (and (and (and (and (and (and (and (and (and (and (and (and (and (and (and (and (and (and (and (and (> arg8 0) (> arg6 0)) (> arg5 0)) (> arg4 0)) (< x228 arg6)) (> arg7 0)) (> x229 (- 1))) (< x230 x229)) (< x231 arg8)) (< x233 x232)) (>= arg3 arg2)) (> x232 (- 1))) (> x234 arg5P)) (> x231 (- 1))) (> x231 arg5P)) (> x235 0)) (> x234 (- 1))) (<= (+ arg1P 2) arg1)) (> arg1 2)) (> arg1P 0)) (> arg2P 9)) (> arg3P 0)) (> arg4P 4))))
    (cfg_trans2 pc f2986_0_entry_LE pc1 f2990_0_addBefore_FieldAccess (exists ((x249 Int) (x250 Int)) (and (and (and (and (and (and (and (and (and (and (and (and (and (and (> arg5 (- 1)) (> x249 0)) (< x250 arg5)) (< x249 arg7)) (> arg7 (- 1))) (>= arg3 arg2)) (> x250 0)) (> x249 arg5P)) (<= arg1P arg1)) (> arg1 0)) (> arg1P 0)) (> arg2P 5)) (> arg3P 0)) (> arg4P 4)) (= arg7 arg8))))
    (cfg_trans2 pc f3201_0_entry_GT pc1 f2990_0_addBefore_FieldAccess (exists ((x264 Int) (x265 Int)) (and (and (and (and (and (and (and (and (and (and (and (and (and (and (> arg4 (- 1)) (> x264 0)) (< x265 arg4)) (< x264 arg5)) (> arg5 (- 1))) (< arg3 arg2)) (> x265 0)) (> x264 arg5P)) (<= arg1P arg1)) (> arg1 0)) (> arg1P 0)) (> arg2P 5)) (> arg3P 0)) (> arg4P 4)) (= arg4 arg7))))
    (cfg_trans2 pc f1_0_main_Load pc1 f496_0_createList_Load (and (and (and (and (and (and (and (> arg1P (- 1)) (> arg2 0)) (<= (- arg2P 7) arg1)) (> arg1 0)) (> arg2P 7)) (= 1 arg5P)) (= 0 arg6P)) (= 0 arg7P)))
    (cfg_trans2 pc f928_0_createList_Load pc1 f2377_0_createList_LE (and (and (and (and (and (and (and (and (and (and (and (and (and (and (and (and (and (and (and (and (and (and (and (> arg2 11) (> arg1P 11)) (<= (+ arg20 5) arg2)) (<= (+ arg21 3) arg2)) (= arg1 arg2P)) (= arg13 arg3P)) (= arg11 arg4P)) (= arg7 arg5P)) (= arg12 arg6P)) (= arg6 arg7P)) (= arg3 arg9P)) (= arg14 arg10P)) (= arg5 arg11P)) (= 0 arg12P)) (= arg4 arg13P)) (= arg8 arg14P)) (= arg9 arg15P)) (= arg10 arg16P)) (= arg15 arg17P)) (= arg16 arg18P)) (= arg17 arg19P)) (= arg19 arg20P)) (= arg20 arg21P)) (= arg21 arg23P)))
    (cfg_trans2 pc f2377_0_createList_LE pc1 f2377_0_createList_LE (exists ((x296 Int) (x333 Int)) (and (and (and (and (and (and (and (and (and (and (and (and (and (and (and (and (and (and (and (and (and (and (and (and (and (and (and (and (and (and (and (and (and (and (and (and (> arg2 0) (> x296 (- 1))) (> arg6 0)) (> arg3 0)) (> arg20 (- 1))) (< arg20 x296)) (> arg10 0)) (> arg4 0)) (> arg13 0)) (> arg11 0)) (> arg12 0)) (> x333 (- 1))) (> arg9 0)) (> arg5 0)) (> arg18 0)) (> arg14 0)) (> arg19 0)) (> arg17 0)) (> arg15 0)) (> arg16 0)) (> arg23 (- 1))) (> arg21 (- 1))) (> arg1 9)) (> arg1P 9)) (<= (+ arg21 5) arg1)) (<= (+ arg22 9) arg1)) (<= (+ arg23 3) arg1)) (= (- arg2 1) arg2P)) (= arg3 arg3P)) (= arg6 arg6P)) (= arg7 arg7P)) (= arg8 arg8P)) (= arg10 arg10P)) (= arg12 arg12P)) (= (+ arg20 1) arg20P)) (= (+ arg21 1) arg21P)) (= (+ arg23 1) arg23P))))
    (cfg_trans2 pc f2377_0_createList_LE pc1 f2377_0_createList_LE (exists ((x334 Int) (x365 Int)) (and (and (and (and (and (and (and (and (and (and (and (and (and (and (and (and (and (and (and (and (and (and (and (and (and (and (and (and (and (and (and (and (and (and (and (> arg2 0) (> x334 (- 1))) (> arg6 0)) (> arg3 0)) (> arg20 (- 1))) (< arg20 x334)) (> arg10 0)) (> arg12 0)) (> x365 (- 1))) (> arg18 0)) (> arg19 0)) (> arg17 0)) (> arg8 0)) (> arg23 (- 1))) (> arg21 (- 1))) (> arg1 11)) (> arg1P 13)) (<= (+ arg21 5) arg1)) (<= (+ arg22 9) arg1)) (<= (+ arg23 3) arg1)) (= arg8 arg9)) (= arg10 arg11)) (= arg12 arg13)) (= arg7 arg16)) (= (- arg2 1) arg2P)) (= 0 arg3P)) (= 1 arg4P)) (= 1 arg5P)) (= arg8 arg8P)) (= arg10 arg10P)) (= arg12 arg12P)) (= 0 arg13P)) (= 2 arg15P)) (= (+ arg20 1) arg20P)) (= (+ arg21 1) arg21P)) (= (+ arg23 1) arg23P))))
    (cfg_trans2 pc __init pc1 f1_0_main_Load true)
  )
)
